c n orig vars 311
p cnf 484 995
-383 0
312 -180 0
312 -176 0
-312 180 176 0
313 -179 0
313 -178 0
313 -181 0
-313 179 178 181 0
314 -185 0
314 -184 0
-314 185 184 0
315 -193 0
315 -190 0
-315 193 190 0
316 -203 0
316 -206 0
-316 203 206 0
317 -201 0
317 -204 0
-317 201 204 0
318 -199 0
318 -202 0
-318 199 202 0
360 -175 0
360 -200 0
-360 175 200 0
320 -345 0
320 -401 0
-320 345 401 0
321 -161 0
321 -162 0
-321 161 162 0
322 -325 0
322 -339 0
322 -340 0
322 -213 0
322 -219 0
322 -220 0
322 -221 0
322 -217 0
-322 325 339 340 213 219 220 221 217 0
323 -72 0
323 -69 0
-323 72 69 0
324 -70 0
324 -103 0
-324 70 103 0
325 -309 0
325 -308 0
-325 309 308 0
326 -34 0
326 -123 0
326 -124 0
-326 34 123 124 0
327 -32 0
327 -35 0
-327 32 35 0
328 -67 0
328 -259 0
328 -17 0
-328 67 259 17 0
329 -261 0
329 -262 0
-329 261 262 0
330 -329 0
330 -328 0
330 -336 0
330 -335 0
330 -484 0
330 -483 0
330 -482 0
330 -481 0
330 -480 0
330 -479 0
330 -478 0
330 -477 0
330 -141 0
330 -144 0
-330 329 328 336 335 484 483 482 481 480 479 478 477 141 144 0
-331 354 0
-331 367 0
-331 330 0
331 -354 -367 -330 0
-332 367 0
-332 425 0
-332 330 0
332 -367 -425 -330 0
-333 354 0
-333 425 0
-333 330 0
333 -354 -425 -330 0
-334 354 0
-334 367 0
-334 425 0
334 -354 -367 -425 0
335 -116 0
335 -115 0
-335 116 115 0
336 -114 0
336 -108 0
336 -107 0
336 -73 0
336 -74 0
336 -71 0
-336 114 108 107 73 74 71 0
337 -381 0
337 -298 0
337 -301 0
-337 381 298 301 0
338 -197 0
338 -192 0
-338 197 192 0
339 -303 0
339 -302 0
-339 303 302 0
340 -305 0
340 -304 0
-340 305 304 0
341 -26 0
341 -29 0
341 -28 0
-341 26 29 28 0
-342 380 0
-342 357 0
342 -380 -357 0
343 -366 0
343 -138 0
343 -137 0
-343 366 138 137 0
344 -338 0
344 -325 0
344 -324 0
344 -195 0
344 -220 0
344 -216 0
344 -221 0
344 -217 0
-344 338 325 324 195 220 216 221 217 0
345 -191 0
345 -194 0
-345 191 194 0
346 -336 0
346 -141 0
346 -144 0
-346 336 141 144 0
347 -14 0
347 -24 0
-347 14 24 0
348 -21 0
348 -20 0
-348 21 20 0
-349 394 0
349 -394 0
-350 390 0
350 -390 0
-351 410 0
351 -410 0
-352 351 0
-352 140 0
352 -351 -140 0
353 -230 0
353 -231 0
353 -228 0
-353 230 231 228 0
354 -484 0
354 -483 0
354 -482 0
354 -480 0
354 -363 0
354 -364 0
354 -353 0
354 -356 0
354 -355 0
354 -407 0
354 -408 0
354 -409 0
354 -139 0
354 -134 0
-354 484 483 482 480 363 364 353 356 355 407 408 409 139 134 0
355 -271 0
355 -274 0
355 -273 0
355 -260 0
355 -15 0
355 -236 0
-355 271 274 273 260 15 236 0
356 -237 0
356 -234 0
356 -235 0
356 -232 0
356 -233 0
-356 237 234 235 232 233 0
357 -355 0
357 -139 0
357 -134 0
-357 355 139 134 0
358 -327 0
358 -387 0
358 -341 0
358 -436 0
358 -317 0
358 -360 0
358 -312 0
358 -376 0
358 -378 0
358 -476 0
358 -452 0
-358 327 387 341 436 317 360 312 376 378 476 452 0
359 -159 0
359 -160 0
-359 159 160 0
319 -82 0
319 -27 0
-319 82 27 0
-361 371 0
-361 346 0
361 -371 -346 0
-362 402 0
-362 422 0
362 -402 -422 0
363 -284 0
363 -285 0
-363 284 285 0
364 -229 0
364 -283 0
-364 229 283 0
365 -78 0
365 -77 0
-365 78 77 0
366 -210 0
366 -211 0
366 -10 0
366 -33 0
366 -76 0
366 -75 0
-366 210 211 10 33 76 75 0
367 -329 0
367 -328 0
367 -368 0
367 -365 0
367 -366 0
367 -484 0
367 -483 0
367 -363 0
367 -364 0
367 -361 0
367 -362 0
367 -370 0
367 -138 0
367 -137 0
-367 329 328 368 365 366 484 483 363 364 361 362 370 138 137 0
368 -80 0
368 -79 0
368 -158 0
368 -81 0
368 -68 0
-368 80 79 158 81 68 0
-369 350 0
-369 426 0
369 -350 -426 0
-370 468 0
-370 215 0
370 -468 -215 0
-382 348 0
-382 347 0
-382 350 0
-382 349 0
382 -348 -347 -350 -349 0
-372 444 0
-372 252 0
372 -444 -252 0
-373 350 0
-373 374 0
373 -350 -374 0
374 -256 0
374 -255 0
-374 256 255 0
375 -436 0
375 -316 0
375 -360 0
375 -314 0
375 -410 0
375 -376 0
375 -377 0
375 -378 0
375 -379 0
375 -416 0
375 -453 0
-375 436 316 360 314 410 376 377 378 379 416 453 0
376 -42 0
376 -183 0
-376 42 183 0
377 -136 0
377 -133 0
-377 136 133 0
378 -130 0
378 -135 0
-378 130 135 0
379 -131 0
379 -132 0
379 -129 0
-379 131 132 129 0
380 -455 0
380 -381 0
380 -329 0
380 -456 0
380 -365 0
380 -449 0
380 -450 0
380 -433 0
380 -465 0
380 -432 0
380 -464 0
380 -399 0
380 -435 0
380 -335 0
380 -463 0
380 -398 0
380 -484 0
380 -483 0
380 -482 0
380 -480 0
380 -363 0
380 -353 0
380 -434 0
380 -453 0
380 -397 0
380 -429 0
380 -396 0
380 -428 0
380 -403 0
380 -297 0
380 -300 0
380 -139 0
380 -298 0
380 -134 0
380 -301 0
-380 455 381 329 456 365 449 450 433 465 432 464 399 435 335 463 398 484 483 482 480 363 353 434 453 397 429 396 428 403 297 300 139 298 134 301 0
381 -263 0
381 -264 0
381 -265 0
381 -266 0
381 -267 0
381 -268 0
-381 263 264 265 266 267 268 0
383 -334 0
383 -333 0
383 -332 0
383 -331 0
-383 334 333 332 331 0
384 -13 0
384 -24 0
-384 13 24 0
385 -25 0
385 -24 0
-385 25 24 0
386 -22 0
386 -18 0
-386 22 18 0
387 -31 0
387 -30 0
387 -209 0
-387 31 30 209 0
388 -296 0
388 -24 0
-388 296 24 0
389 -121 0
389 -122 0
389 -127 0
-389 121 122 127 0
390 -163 0
390 -164 0
-390 163 164 0
391 -295 0
391 -20 0
-391 295 20 0
392 -319 0
392 -373 0
-392 319 373 0
-393 350 0
-393 349 0
-393 415 0
-393 385 0
393 -350 -349 -415 -385 0
394 -165 0
394 -166 0
-394 165 166 0
395 -327 0
395 -436 0
395 -316 0
395 -317 0
395 -318 0
395 -376 0
395 -377 0
395 -389 0
395 -326 0
395 -413 0
395 -382 0
-395 327 436 316 317 318 376 377 389 326 413 382 0
-396 404 0
-396 254 0
396 -404 -254 0
-397 349 0
-397 418 0
397 -349 -418 0
398 -113 0
398 -112 0
398 -111 0
398 -110 0
398 -117 0
-398 113 112 111 110 117 0
399 -149 0
399 -143 0
399 -142 0
399 -188 0
399 -153 0
399 -148 0
399 -95 0
399 -96 0
399 -97 0
399 -98 0
399 -99 0
399 -100 0
399 -101 0
399 -102 0
399 -93 0
399 -94 0
399 -63 0
399 -62 0
-399 149 143 142 188 153 148 95 96 97 98 99 100 101 102 93 94 63 62 0
400 -251 0
400 -255 0
-400 251 255 0
-401 350 0
-401 349 0
-401 400 0
-401 405 0
401 -350 -349 -400 -405 0
402 -329 0
402 -450 0
402 -433 0
402 -465 0
402 -432 0
402 -464 0
402 -482 0
402 -434 0
402 -462 0
402 -461 0
402 -454 0
402 -459 0
402 -293 0
402 -137 0
402 -144 0
-402 329 450 433 465 432 464 482 434 462 461 454 459 293 137 144 0
-403 406 0
-403 215 0
403 -406 -215 0
404 -420 0
404 -421 0
-404 420 421 0
405 -249 0
405 -258 0
-405 249 258 0
406 -325 0
406 -339 0
406 -359 0
406 -218 0
406 -219 0
406 -195 0
406 -216 0
406 -221 0
-406 325 339 359 218 219 195 216 221 0
-407 427 0
-407 337 0
407 -427 -337 0
-408 473 0
-408 419 0
408 -473 -419 0
-409 322 0
-409 215 0
409 -322 -215 0
410 -187 0
410 -106 0
410 -182 0
-410 187 106 182 0
-411 412 0
411 -412 0
412 -207 0
412 -169 0
412 -170 0
-412 207 169 170 0
-413 414 0
-413 156 0
413 -414 -156 0
-414 387 0
414 -387 0
415 -19 0
415 -18 0
-415 19 18 0
-416 411 0
-416 23 0
416 -411 -23 0
-474 320 0
-474 250 0
474 -320 -250 0
-418 446 0
418 -446 0
419 -455 0
419 -329 0
419 -450 0
419 -465 0
419 -464 0
419 -399 0
419 -435 0
419 -463 0
419 -482 0
419 -434 0
419 -397 0
419 -424 0
419 -253 0
419 -134 0
419 -301 0
-419 455 329 450 465 464 399 435 463 482 434 397 424 253 134 301 0
420 -151 0
420 -152 0
-420 151 152 0
-421 349 0
-421 447 0
421 -349 -447 0
422 -329 0
422 -456 0
422 -466 0
422 -433 0
422 -465 0
422 -435 0
422 -463 0
422 -482 0
422 -434 0
422 -461 0
422 -452 0
422 -460 0
422 -417 0
422 -292 0
422 -138 0
422 -141 0
-422 329 456 466 433 465 435 463 482 434 461 452 460 417 292 138 141 0
423 -440 0
423 -443 0
-423 440 443 0
-424 423 0
-424 254 0
424 -423 -254 0
425 -381 0
425 -329 0
425 -365 0
425 -335 0
425 -398 0
425 -484 0
425 -482 0
425 -363 0
425 -353 0
425 -342 0
425 -467 0
425 -403 0
425 -298 0
425 -301 0
-425 381 329 365 335 398 484 482 363 353 342 467 403 298 301 0
426 -196 0
426 -255 0
-426 196 255 0
427 -455 0
427 -329 0
427 -456 0
427 -449 0
427 -450 0
427 -433 0
427 -465 0
427 -432 0
427 -464 0
427 -399 0
427 -435 0
427 -463 0
427 -484 0
427 -483 0
427 -482 0
427 -480 0
427 -363 0
427 -364 0
427 -353 0
427 -356 0
427 -355 0
427 -434 0
427 -453 0
427 -397 0
427 -429 0
427 -424 0
427 -372 0
427 -409 0
427 -294 0
427 -253 0
427 -139 0
427 -298 0
427 -134 0
427 -301 0
-427 455 329 456 449 450 433 465 432 464 399 435 463 484 483 482 480 363 364 353 356 355 434 453 397 429 424 372 409 294 253 139 298 134 301 0
371 -329 0
371 -328 0
371 -368 0
371 -456 0
371 -365 0
371 -366 0
371 -450 0
371 -466 0
371 -433 0
371 -465 0
371 -432 0
371 -464 0
371 -435 0
371 -463 0
371 -484 0
371 -483 0
371 -482 0
371 -363 0
371 -364 0
371 -434 0
371 -462 0
371 -461 0
371 -452 0
371 -454 0
371 -460 0
371 -459 0
371 -417 0
371 -370 0
371 -292 0
371 -293 0
371 -138 0
371 -141 0
371 -137 0
371 -144 0
-371 329 328 368 456 365 366 450 466 433 465 432 464 435 463 484 483 482 363 364 434 462 461 452 454 460 459 417 370 292 293 138 141 137 144 0
-428 470 0
-428 252 0
428 -470 -252 0
-429 437 0
-429 375 0
429 -437 -375 0
430 -315 0
430 -369 0
-430 315 369 0
-431 430 0
-431 291 0
431 -430 -291 0
432 -59 0
432 -58 0
-432 59 58 0
433 -56 0
433 -55 0
-433 56 55 0
434 -242 0
434 -247 0
434 -248 0
434 -57 0
434 -53 0
434 -270 0
434 -269 0
434 -272 0
-434 242 247 248 57 53 270 269 272 0
435 -177 0
435 -174 0
-435 177 174 0
436 -205 0
436 -208 0
-436 205 208 0
437 -412 0
437 -436 0
437 -316 0
437 -317 0
437 -318 0
437 -360 0
437 -312 0
437 -313 0
437 -314 0
437 -352 0
437 -393 0
-437 412 436 316 317 318 360 312 313 314 352 393 0
-438 350 0
-438 349 0
-438 426 0
-438 447 0
438 -350 -349 -426 -447 0
439 -307 0
439 -306 0
-439 307 306 0
440 -311 0
440 -310 0
-440 311 310 0
441 -455 0
441 -329 0
441 -450 0
441 -465 0
441 -464 0
441 -399 0
441 -435 0
441 -463 0
441 -482 0
441 -434 0
441 -397 0
441 -396 0
441 -300 0
441 -134 0
441 -301 0
-441 455 329 450 465 464 399 435 463 482 434 397 396 300 134 301 0
442 -329 0
442 -450 0
442 -433 0
442 -465 0
442 -432 0
442 -464 0
442 -482 0
442 -434 0
442 -462 0
442 -461 0
442 -454 0
442 -431 0
442 -214 0
442 -137 0
442 -144 0
-442 329 450 433 465 432 464 482 434 462 461 454 431 214 137 144 0
-443 349 0
-443 472 0
443 -349 -472 0
444 -439 0
444 -438 0
-444 439 438 0
445 -329 0
445 -456 0
445 -466 0
445 -433 0
445 -465 0
445 -435 0
445 -463 0
445 -482 0
445 -434 0
445 -461 0
445 -452 0
445 -460 0
445 -474 0
445 -257 0
445 -138 0
445 -141 0
-445 329 456 466 433 465 435 463 482 434 461 452 460 474 257 138 141 0
446 -167 0
446 -168 0
-446 167 168 0
447 -198 0
447 -258 0
-447 198 258 0
448 -329 0
448 -328 0
448 -456 0
448 -450 0
448 -466 0
448 -433 0
448 -465 0
448 -432 0
448 -464 0
448 -336 0
448 -435 0
448 -335 0
448 -463 0
448 -484 0
448 -483 0
448 -482 0
448 -481 0
448 -480 0
448 -434 0
448 -462 0
448 -461 0
448 -452 0
448 -454 0
448 -460 0
448 -431 0
448 -474 0
448 -477 0
448 -257 0
448 -214 0
448 -138 0
448 -141 0
448 -137 0
448 -144 0
-448 329 328 456 450 466 433 465 432 464 336 435 335 463 484 483 482 481 480 434 462 461 452 454 460 431 474 477 257 214 138 141 137 144 0
449 -2 0
449 -3 0
449 -8 0
449 -9 0
449 -6 0
449 -7 0
449 -11 0
449 -12 0
449 -282 0
449 -281 0
449 -280 0
449 -279 0
449 -278 0
449 -277 0
449 -276 0
449 -275 0
449 -290 0
449 -289 0
449 -243 0
-449 2 3 8 9 6 7 11 12 282 281 280 279 278 277 276 275 290 289 243 0
450 -4 0
450 -5 0
-450 4 5 0
-451 457 0
451 -457 0
-452 350 0
-452 349 0
-452 391 0
-452 388 0
452 -350 -349 -391 -388 0
-453 350 0
-453 349 0
-453 386 0
-453 384 0
453 -350 -349 -386 -384 0
-454 350 0
-454 451 0
454 -350 -451 0
455 -172 0
455 -173 0
-455 172 173 0
456 -244 0
456 -245 0
456 -246 0
456 -239 0
456 -240 0
456 -241 0
-456 244 245 246 239 240 241 0
457 -128 0
457 -125 0
-457 128 125 0
458 -455 0
458 -329 0
458 -456 0
458 -449 0
458 -450 0
458 -433 0
458 -432 0
458 -435 0
458 -482 0
458 -480 0
458 -434 0
458 -453 0
458 -429 0
458 -428 0
458 -297 0
458 -139 0
458 -298 0
-458 455 329 456 449 450 433 432 435 482 480 434 453 429 428 297 139 298 0
-459 392 0
-459 291 0
459 -392 -291 0
-460 395 0
-460 358 0
460 -395 -358 0
461 -126 0
461 -118 0
-461 126 118 0
462 -119 0
462 -227 0
462 -226 0
462 -66 0
462 -120 0
462 -223 0
462 -222 0
462 -225 0
462 -224 0
462 -150 0
462 -147 0
462 -49 0
462 -50 0
462 -51 0
462 -52 0
462 -45 0
462 -46 0
462 -47 0
-462 119 227 226 66 120 223 222 225 224 150 147 49 50 51 52 45 46 47 0
463 -154 0
463 -65 0
-463 154 65 0
464 -37 0
464 -64 0
-464 37 64 0
465 -61 0
465 -60 0
-465 61 60 0
466 -48 0
466 -43 0
466 -44 0
466 -92 0
466 -91 0
466 -90 0
466 -89 0
466 -88 0
466 -87 0
466 -86 0
466 -85 0
466 -84 0
466 -83 0
466 -40 0
466 -41 0
466 -38 0
466 -39 0
466 -36 0
466 -238 0
-466 48 43 44 92 91 90 89 88 87 86 85 84 83 40 41 38 39 36 238 0
-467 458 0
-467 441 0
467 -458 -441 0
468 -325 0
468 -324 0
468 -323 0
468 -213 0
468 -218 0
468 -219 0
468 -216 0
468 -217 0
-468 325 324 323 213 218 219 216 217 0
469 -105 0
469 -299 0
-469 105 299 0
470 -321 0
470 -401 0
-470 321 401 0
471 -469 0
471 -438 0
-471 469 438 0
472 -212 0
472 -258 0
-472 212 258 0
473 -455 0
473 -329 0
473 -456 0
473 -449 0
473 -450 0
473 -433 0
473 -432 0
473 -435 0
473 -482 0
473 -480 0
473 -434 0
473 -453 0
473 -429 0
473 -372 0
473 -294 0
473 -139 0
473 -298 0
-473 455 329 456 449 450 433 432 435 482 480 434 453 429 372 294 139 298 0
-417 471 0
-417 250 0
417 -471 -250 0
-475 389 0
475 -389 0
-476 475 0
-476 171 0
476 -475 -171 0
-477 344 0
-477 215 0
477 -344 -215 0
-478 442 0
-478 445 0
478 -442 -445 0
-479 448 0
-479 343 0
479 -448 -343 0
480 -286 0
480 -287 0
-480 286 287 0
481 -189 0
481 -155 0
481 -54 0
481 -157 0
481 -109 0
-481 189 155 54 157 109 0
482 -288 0
482 -1 0
-482 288 1 0
483 -16 0
483 -145 0
-483 16 145 0
484 -146 0
484 -104 0
484 -186 0
-484 146 104 186 0
